
  22    4
  10   10   10   10

   0   0   0   0   0   6 2 3 4 7 9 11 
   9  10  10  10  10   3 13 6 5 
   2  10  10  10  10   3 8 6 5 
   3  10  10  10  10   1 5 
   3  10  10  10  10   5 21 20 17 12 10 
   7  10  10  10  10   5 21 20 17 12 10 
   7  10  10  10  10   5 21 20 17 12 10 
   2  10  10  10  10   6 20 19 18 17 15 12 
   4  10  10  10  10   4 18 17 15 12 
   9  10  10  10  10   5 19 18 16 15 14 
   6  10  10  10  10   3 17 15 12 
   2  10  10  10  10   2 16 14 
   7  10  10  10  10   2 15 14 
   5  10  10  10  10   1 22
   2  10  10  10  10   1 22
  10  10  10  10  10   1 22
  10  10  10  10  10   1 22
   6  10  10  10  10   1 22
   5  10  10  10  10   1 22
   1  10  10  10  10   1 22
   1  10  10  10  10   1 22
   0   0   0   0   0   0 
